1 -6.0  15.0
  2  3.2   5.1
  3 24.6   8.3
  4 23.3   1.3
  5 27.8   8.3
  6 29.0   8.0
  7 31.0   8.0
  8 33.5  10.5
  9 30.0  10.5
 10 29.0  10.0
 11 26.5  11.7
 12 28.3  14.3
 13 27.0  14.3
 14 23.5  19.0
 15 26.0  20.0
 16 25.0  20.0
 17 20.5  19.0
 18 -20.0  13.0
 19 -21.0  14.0
 20 -30.0  30.0
 21 -5.0  30.0
 22  1.3  17.8
 23  1.8  13.8
 24  1.8  13.1
 25  2.0  13.6
 26  4.8  17.0
 27  7.0  15.0
 28  9.8  16.6
 29 11.4  14.5
 30 14.4  11.3
 31 11.0  12.0
 32  9.3  10.7
 33  0.6   2.8
 34 -30.0 -10.0
 35  2.0   0.0
 36 14.5   1.0
 37 15.0   1.8
 38 17.2   2.4
 39 17.2   4.2
 40 18.2   4.4
 41 20.3   2.1
 42 22.8   3.1
 43 23.0   4.0
 44 20.8   4.0
 45 20.8   4.0
 46 18.5   6.4
 47 -14.0  16.0
 48 -0.5   6.9
 49 3.2   2.8
 50 5.6   1.8
 51 8.7   2.8
 52 9.0   3.3
 53 9.0   3.5
 54 11.2   3.3
 55 10.8   4.7
 56 11.5   4.6
 57 12.3  4.7
 58 12.3   5.5
 59 11.2   6.9
 60  6.5   9.7
 61  5.8   8.5
 62  7.2   6.0
 63  7.2   4.0
 64 -4.0  -4.0
 65 -3.0   1.2
 66 -40.0  49.0
 67 -15.0  10.0
 68 -11.0 -10.0
 69 -25.0 -20.0
 70 -25.0 -35.0
 71 -24.0 -35.0
 72 -18.0  10.0
 73  -2.0  10.0
 74  -4.0   8.0
 75  -3.0   5.0
 76   2.1   6.2
 77  -1.7   3.0
 78  -3.0   2.0
 79  -7.0   0.0
 80  -3.0  -6.0
 81 -30.0 -11.0
 82 -62.0 -10.0
 83  -8.0  30.0
 84   1.0  60.0
 85  10.0  52.0
 86  10.0  52.0
 87  10.0  51.0
 88  16.0  29.0
 89  26.0  21.0
 90  16.0  21.0
 91  15.5  19.2
 92   0.0  16.5
 93  17.2  14.3
 94  16.5   7.8
 95  16.9   7.7
 96  18.0   2.0
 97  16.2   4.0
 98  15.0   4.0
 99  15.0   3.0
100  14.8   2.4
101  14.5   3.0
102  13.0   2.6
103  11.8   3.0
104  12.0   4.0
105  12.8   3.6
106  13.4   5.5
107 -150.0   8.0
108 -152.0   1.0
109 -152.0   0.0
110 -142.0 -31.0
111 -78.0 -19.0
112 -78.0 -18.0
113 -78.0 -17.0
114 -80.0 -14.0
115 -118.0  22.0
116 -107.0  30.0
117 -85.0  14.0
118 -78.0  15.0
119 -15.0  16.0
120 -62.0  32.0
121 -120.0 -20.0
122 -90.0 -22.0
123 -79.0 -19.0
124 -79.0 -18.5
125 -79.0 -18.0
126 -78.0 -17.5
127 -79.0 -17.0
128 -80.0  -17.0
129 -80.0  -16.0
130 -80.0  -15.0
131 -48.0   37.0
132 -85.0   15.0
133 -62.0   -9.0
134 -15.0   -4.0
135  -1.0    3.2